p cnf 141 479
c t mc
4 3 0
4 -1 0
-3 1 -4 0
-5 2 0
-5 4 0
-2 -4 5 0
6 -1 0
6 5 0
1 -5 -6 0
-9 7 0
-9 8 0
-7 -8 9 0
-10 -6 0
-10 -9 0
6 9 10 0
1 11 -12 0
-1 -11 -12 0
1 -11 12 0
-1 11 12 0
14 -12 0
14 -13 0
12 13 -14 0
2 -15 -16 0
-2 15 -16 0
2 15 16 0
-2 -15 16 0
-17 14 0
-17 16 0
-14 -16 17 0
19 -17 0
19 -18 0
17 18 -19 0
20 10 0
20 -19 0
-10 19 -20 0
22 -7 0
22 21 0
7 -21 -22 0
24 -23 0
24 13 0
23 -13 -24 0
26 25 0
26 -21 0
-25 21 -26 0
27 -24 0
27 -26 0
24 26 -27 0
-28 27 0
-28 25 0
-27 -25 28 0
30 23 0
30 -29 0
-23 29 -30 0
-31 -28 0
-31 30 0
28 -30 31 0
-32 -22 0
-32 31 0
22 -31 32 0
-33 -29 0
-33 17 0
29 -17 33 0
-35 34 0
-35 7 0
-34 -7 35 0
34 -2 -36 0
-34 2 -36 0
34 2 36 0
-34 -2 36 0
-37 -35 0
-37 36 0
35 -36 37 0
38 -37 0
38 8 0
37 -8 -38 0
39 33 0
39 -38 0
-33 38 -39 0
40 -32 0
40 39 0
32 -39 -40 0
-23 11 -42 0
23 -11 -42 0
-23 -11 42 0
23 11 42 0
44 -42 0
44 -43 0
42 43 -44 0
41 44 -45 0
-41 -44 -45 0
41 -44 45 0
-41 44 45 0
-16 45 -46 0
16 -45 -46 0
-16 -45 46 0
16 45 46 0
-48 -47 0
-48 7 0
47 -7 48 0
46 48 -49 0
-46 -48 -49 0
46 -48 49 0
-46 48 49 0
-50 40 0
-50 49 0
-40 -49 50 0
-51 -6 0
-51 -26 0
6 26 51 0
-52 50 0
-52 -51 0
-50 51 52 0
-53 20 0
-53 52 0
-20 -52 53 0
13 -41 -54 0
-13 41 -54 0
13 41 54 0
-13 -41 54 0
54 41 -55 0
-54 -41 -55 0
54 -41 55 0
-54 41 55 0
-56 36 0
-56 55 0
-36 -55 56 0
57 34 0
57 -6 0
-34 6 -57 0
-57 58 -59 0
57 -58 -59 0
-57 -58 59 0
57 58 59 0
-60 18 0
-60 59 0
-18 -59 60 0
-62 -4 0
-62 -61 0
4 61 62 0
63 -29 0
63 55 0
29 -55 -63 0
37 63 -64 0
-37 -63 -64 0
37 -63 64 0
-37 63 64 0
64 -55 -65 0
-64 55 -65 0
64 55 65 0
-64 -55 65 0
-11 25 -66 0
11 -25 -66 0
-11 -25 66 0
11 25 66 0
-67 -65 0
-67 -66 0
65 66 67 0
68 -62 0
68 -67 0
62 67 -68 0
-15 63 -69 0
15 -63 -69 0
-15 -63 69 0
15 63 69 0
70 -69 0
70 8 0
69 -8 -70 0
68 -70 -71 0
-68 70 -71 0
68 70 71 0
-68 -70 71 0
60 71 -72 0
-60 -71 -72 0
60 -71 72 0
-60 71 72 0
8 -2 -73 0
-8 2 -73 0
8 2 73 0
-8 -2 73 0
-74 -13 0
-74 -29 0
13 29 74 0
75 -2 0
75 -74 0
2 74 -75 0
73 -75 -76 0
-73 75 -76 0
73 75 76 0
-73 -75 76 0
-77 76 0
-77 22 0
-76 -22 77 0
72 -77 -78 0
-72 77 -78 0
72 77 78 0
-72 -77 78 0
79 44 0
79 -42 0
-44 42 -79 0
80 -78 0
80 -79 0
78 79 -80 0
-2 45 -81 0
2 -45 -81 0
-2 -45 81 0
2 45 81 0
-82 -80 0
-82 -81 0
80 81 82 0
-83 26 0
-83 34 0
-26 -34 83 0
84 4 0
84 -34 0
-4 34 -84 0
-22 -12 -85 0
22 12 -85 0
-22 12 85 0
22 -12 85 0
86 -84 0
86 -85 0
84 85 -86 0
-87 69 0
-87 22 0
-69 -22 87 0
36 88 -89 0
-36 -88 -89 0
36 -88 89 0
-36 88 89 0
-89 3 -90 0
89 -3 -90 0
-89 -3 90 0
89 3 90 0
-90 -22 -91 0
90 22 -91 0
-90 22 91 0
90 -22 91 0
-92 87 0
-92 91 0
-87 -91 92 0
-93 -7 0
-93 -63 0
7 63 93 0
-92 -93 -94 0
92 93 -94 0
-92 93 94 0
92 -93 94 0
95 86 0
95 94 0
-86 -94 -95 0
96 83 0
96 -95 0
-83 95 -96 0
82 96 -97 0
-82 -96 -97 0
82 -96 97 0
-82 96 97 0
-99 -44 0
-99 -98 0
44 98 99 0
-100 -64 0
-100 -36 0
64 36 100 0
-101 6 0
-101 -14 0
-6 14 101 0
-101 -73 -102 0
101 73 -102 0
-101 73 102 0
101 -73 102 0
103 -11 0
103 -88 0
11 88 -103 0
-104 -102 0
-104 103 0
102 -103 104 0
-100 104 -105 0
100 -104 -105 0
-100 -104 105 0
100 104 105 0
106 -21 0
106 -75 0
21 75 -106 0
-107 105 0
-107 -106 0
-105 106 107 0
108 -99 0
108 -107 0
99 107 -108 0
-97 108 -109 0
97 -108 -109 0
-97 -108 109 0
97 108 109 0
-74 17 -110 0
74 -17 -110 0
-74 -17 110 0
74 17 110 0
111 26 0
111 42 0
-26 -42 -111 0
112 44 0
112 -25 0
-44 25 -112 0
113 -55 0
113 41 0
55 -41 -113 0
-114 -113 0
-114 -75 0
113 75 114 0
-115 -114 0
-115 34 0
114 -34 115 0
-116 115 0
-116 47 0
-115 -47 116 0
117 112 0
117 -116 0
-112 116 -117 0
-111 -117 -118 0
111 117 -118 0
-111 117 118 0
111 -117 118 0
-54 -61 -119 0
54 61 -119 0
-54 61 119 0
54 -61 119 0
120 118 0
120 -119 0
-118 119 -120 0
121 -110 0
121 -120 0
110 120 -121 0
122 -109 0
122 -121 0
109 121 -122 0
-123 -63 0
-123 -5 0
63 5 123 0
-124 -41 0
-124 63 0
41 -63 124 0
125 124 0
125 -11 0
-124 11 -125 0
-123 125 -126 0
123 -125 -126 0
-123 -125 126 0
123 125 126 0
127 -22 0
127 -101 0
22 101 -127 0
128 73 0
128 127 0
-73 -127 -128 0
-126 128 -129 0
126 -128 -129 0
-126 -128 129 0
126 128 129 0
130 13 0
130 3 0
-13 -3 -130 0
129 -130 -131 0
-129 130 -131 0
129 130 131 0
-129 -130 131 0
132 -24 0
132 11 0
24 -11 -132 0
-133 -63 0
-133 58 0
63 -58 133 0
132 -133 -134 0
-132 133 -134 0
132 133 134 0
-132 -133 134 0
135 -131 0
135 -134 0
131 134 -135 0
-136 64 0
-136 -57 0
-64 57 136 0
26 -136 -137 0
-26 136 -137 0
26 136 137 0
-26 -136 137 0
-138 -135 0
-138 -137 0
135 137 138 0
-122 -138 -139 0
122 138 -139 0
-122 138 139 0
122 -138 139 0
-140 56 0
-140 -139 0
-56 139 140 0
-141 53 0
-141 140 0
-53 -140 141 0
-102 137 -26 -78 3 -43 127 0
-126 -101 0
25 -98 46 -37 65 0
137 118 -88 73 55 -123 122 136 -62 -54 0
-54 -119 21 108 129 0
-109 -124 63 -29 -126 41 -72 21 0
-42 -75 -52 -111 84 45 0
87 60 -47 -4 34 108 -15 0
-22 -138 -64 -18 -11 -91 -119 0
55 121 59 -138 86 -69 0
-122 64 -123 0
-31 51 59 69 -67 -130 0
48 -37 -128 0
-87 106 24 0
-126 135 -67 -8 -116 87 -16 0
-41 54 117 -14 -121 128 127 1 76 -81 0
139 35 81 41 -1 -13 -28 -32 -104 -141 0
-11 -64 107 0
-2 -18 114 117 -51 -88 113 -95 0
19 57 -102 -83 85 -38 -35 105 0
136 106 69 -77 -80 22 -71 9 0
-95 123 27 110 36 137 141 0
78 90 121 -47 123 22 0
45 -53 -117 35 -96 -60 -109 -82 -125 42 0
100 -83 128 112 0
-128 -7 0
-141 -24 0
94 -7 66 -93 0
87 -27 96 -86 16 6 -85 0
-79 -64 -45 -37 18 60 0
14 -27 -13 79 -11 -105 -88 -70 0
-124 -107 0
30 84 140 -29 0
27 8 10 -52 -29 -73 0
69 -119 137 102 -14 62 -136 -110 -58 0
-4 8 5 0
137 38 15 0
15 9 -117 -91 111 139 1 104 -118 0
81 -41 -45 -133 104 -56 14 -28 61 0
-1 -41 -7 -24 122 0
-122 137 -1 -73 -8 134 104 0
51 -4 -120 -14 104 0
-98 -34 68 -50 57 0
117 -61 -86 -114 -12 77 -3 0
-30 -41 0
-110 136 54 -115 58 0
83 -119 52 37 -20 0
139 37 -68 115 -70 0
2 -52 42 97 0
-5 103 -57 -131 -72 45 0
40 1 -51 81 -87 -110 108 0
32 1 -83 21 0
41 137 131 46 56 138 62 127 119 0
-51 122 -6 -24 -104 0
92 -31 0
6 -25 -7 23 -54 -56 13 -134 -89 -140 0
-91 31 80 -116 0
-19 66 -49 -68 -90 -141 0
-58 -138 51 0
-92 33 104 134 -119 29 17 0
132 49 87 -120 7 6 109 -20 0
-136 32 43 122 -26 -70 -129 0
-125 -28 -131 26 -24 27 37 -134 -140 0
116 85 73 55 -69 100 -140 0
84 134 96 -16 -73 -10 -81 -97 -72 112 0
79 10 6 -19 -84 -119 68 65 0
-137 10 -29 -33 -68 -12 -110 1 111 53 0
86 -69 -73 -15 -8 -89 0
21 71 130 -125 -116 83 -2 78 0
-61 106 -15 0
-71 -122 48 92 -52 -68 -12 -118 13 95 0
31 -106 -115 -60 0
-22 55 80 65 -105 -118 112 -128 115 137 0
-37 13 -33 -63 14 81 -46 0
127 133 -6 -69 0
11 -74 -86 27 -66 23 -14 10 -79 105 0
80 -92 -64 117 -93 122 0
-113 -63 -3 89 0
9 91 -55 -74 77 -37 -125 -94 0
-40 -131 -25 0
141 0
